22
1 0 5
2 0 3
2 1 9
3 0 10
3 1 4
3 2 6
4 0 4
4 1 6
4 2 4
4 3 10
5 0 4
5 1 5
5 2 7
5 3 5
5 4 8
6 0 7
6 1 9
6 2 1
6 3 1
6 4 2
6 5 5
7 0 5
7 1 1
7 2 7
7 3 3
7 4 4
7 5 2
7 6 7
8 0 10
8 1 3
8 2 8
8 3 8
8 4 1
8 5 1
8 6 8
8 7 5
9 0 3
9 1 9
9 2 2
9 3 3
9 4 2
9 5 9
9 6 1
9 7 7
9 8 1
10 0 1
10 1 1
10 2 4
10 3 7
10 4 8
10 5 4
10 6 10
10 7 8
10 8 5
10 9 4
11 0 8
11 1 5
11 2 10
11 3 9
11 4 9
11 5 2
11 6 3
11 7 10
11 8 8
11 9 7
11 10 5
12 0 3
12 1 6
12 2 1
12 3 1
12 4 1
12 5 5
12 6 2
12 7 10
12 8 9
12 9 8
12 10 4
12 11 10
13 0 7
13 1 7
13 2 1
13 3 7
13 4 8
13 5 1
13 6 2
13 7 5
13 8 5
13 9 5
13 10 7
13 11 3
13 12 1
14 0 8
14 1 4
14 2 3
14 3 7
14 4 3
14 5 1
14 6 4
14 7 7
14 8 9
14 9 2
14 10 9
14 11 5
14 12 9
14 13 2
15 0 9
15 1 6
15 2 6
15 3 7
15 4 10
15 5 6
15 6 10
15 7 5
15 8 6
15 9 4
15 10 8
15 11 6
15 12 1
15 13 4
15 14 8
16 0 4
16 1 1
16 2 5
16 3 8
16 4 1
16 5 8
16 6 1
16 7 8
16 8 5
16 9 3
16 10 10
16 11 8
16 12 7
16 13 3
16 14 8
16 15 5
17 0 8
17 1 8
17 2 7
17 3 6
17 4 10
17 5 5
17 6 3
17 7 2
17 8 7
17 9 5
17 10 6
17 11 7
17 12 10
17 13 9
17 14 8
17 15 2
17 16 3
18 0 1
18 1 10
18 2 8
18 3 5
18 4 6
18 5 10
18 6 1
18 7 6
18 8 6
18 9 10
18 10 1
18 11 1
18 12 6
18 13 4
18 14 9
18 15 2
18 16 4
18 17 4
19 0 5
19 1 3
19 2 2
19 3 8
19 4 1
19 5 9
19 6 9
19 7 8
19 8 1
19 9 6
19 10 2
19 11 6
19 12 1
19 13 4
19 14 7
19 15 5
19 16 1
19 17 2
19 18 8
20 0 7
20 1 2
20 2 5
20 3 8
20 4 8
20 5 9
20 6 9
20 7 9
20 8 6
20 9 7
20 10 10
20 11 8
20 12 4
20 13 3
20 14 5
20 15 7
20 16 6
20 17 3
20 18 7
20 19 3
21 0 6
21 1 4
21 2 5
21 3 3
21 4 7
21 5 1
21 6 5
21 7 7
21 8 7
21 9 8
21 10 9
21 11 7
21 12 7
21 13 5
21 14 2
21 15 2
21 16 1
21 17 1
21 18 7
21 19 6
21 20 5
